c status 214 1469274561549
c status 140 1469274561557
c status 130 1469274561874
c status 129 1469274563197
c status 127 1469274563456
c status 126 1469274576048
c status 125 1469274627060
s td 60 125 256
b 1 9 205 8 12 18 225 28 31 227 30 11 13 208 10 21 26 27 22 24 23 68 80 244 190 51 243 186 242 72 49 20 15 213 136 19 197 245
b 2 204 205 8 225 223 28 207 210 206 11 208 33 220 222 217 218 219 69 67 48 113 244 54 184 186 242 91 74 216 212 215 214 211 2 1
b 3 205 8 12 18 225 223 28 31 207 210 206 227 30 11 13 226 208 33 10 21 220 222 217 26 218 219 27 22 24 23 68 69 80 67 48 113 244 190 54 51 184 243 186 247 242 72 187 91 49 74 34 20 55 15 216 102 180 213 212 136 215 214 19 211 75 2 25 197 245 1
b 4 8 12 18 225 223 28 31 207 210 206 227 30 11 13 226 208 33 10 21 220 222 217 26 218 219 27 22 24 23 68 69 80 67 48 113 244 190 54 71 50 51 184 243 186 247 242 72 187 91 49 74 34 20 55 15 216 102 189 180 213 212 125 136 215 214 202 19 211 75 2 25 185 197 245 233 1
b 5 35 32 230 18 28 31 206 227 30 13 33 44 43 39 42 45 46 69 250 252 54 248 186 72 74 34 38 76 55 15 216 36 179 198 37 56 40 136 234 202 192 211
b 6 32 230 12 18 223 28 31 207 206 227 30 11 13 33 10 44 43 39 42 45 46 52 68 69 113 250 252 188 54 71 50 51 243 248 186 247 72 249 74 73 34 38 76 55 15 216 36 246 102 212 179 198 37 56 40 136 194 176 234 202 192 211 17
b 7 229 230 18 225 223 31 210 227 11 13 226 228 208 237 240 236 239 238 241 67 250 190 188 54 248 91 249 49 73 34 59 38 193 79 125 235 169 234 232 191 231 211 221
b 8 230 12 18 225 223 28 31 207 210 206 227 30 11 13 226 228 208 33 10 44 43 39 237 240 42 45 46 236 239 238 241 52 68 69 67 113 250 252 190 188 54 71 50 51 243 248 186 247 72 91 249 49 74 73 34 59 38 76 55 15 216 36 246 102 193 189 212 179 198 37 56 79 81 40 60 125 136 235 194 176 169 234 202 192 232 191 19 231 211 251 221 17
b 9 12 18 225 223 28 31 207 210 206 227 30 11 13 226 228 208 33 10 21 44 43 39 220 222 237 240 217 26 42 45 46 218 219 236 239 27 22 24 238 241 23 52 68 69 80 67 48 113 244 250 252 190 188 54 71 50 51 184 243 248 114 186 247 242 72 187 91 249 49 74 73 34 59 38 76 20 55 15 216 36 246 102 193 189 180 213 212 179 198 37 56 79 81 40 60 125 136 215 235 194 176 214 169 234 202 192 232 191 19 231 211 251 75 2 25 185 197 221 245 17 233 1
b 10 18 225 223 28 31 207 210 206 227 30 11 13 226 228 208 33 10 21 44 43 39 220 222 237 240 217 26 42 45 46 218 219 236 239 27 22 24 238 241 23 52 68 69 80 67 48 113 244 250 252 190 188 54 71 50 51 184 243 248 114 186 247 242 72 187 91 249 49 74 73 34 59 38 76 20 55 15 216 36 246 102 193 189 158 180 213 212 179 198 37 56 79 81 40 60 125 136 215 235 194 176 214 169 234 202 192 232 191 19 231 211 251 75 2 25 185 197 221 245 17 233 1
b 11 225 223 28 31 207 210 206 227 30 11 13 226 228 208 33 10 21 44 43 39 220 222 237 240 217 26 42 45 46 218 219 236 239 27 22 24 238 241 23 52 68 69 80 67 48 113 244 250 252 190 188 54 71 50 51 184 243 248 114 186 247 242 72 187 91 249 49 74 73 34 59 38 76 20 55 15 216 36 246 102 193 189 158 180 213 212 179 198 37 56 79 81 40 60 125 136 215 235 194 176 214 169 234 202 192 232 191 19 231 211 251 75 2 25 147 185 197 221 245 17 233 1
b 12 28 31 207 210 206 227 30 11 13 226 228 208 33 10 21 44 43 39 220 222 237 240 217 26 42 45 46 218 219 236 239 27 22 24 238 241 23 52 68 69 80 67 48 113 244 250 252 190 188 54 70 71 50 51 184 243 248 114 186 247 242 72 187 91 249 49 74 73 34 59 38 76 20 55 15 216 36 246 102 193 189 158 180 213 212 179 198 37 56 79 81 40 60 125 136 215 235 194 176 214 169 234 202 192 232 191 19 231 211 251 75 2 25 147 185 197 221 245 17 233 1
b 13 31 207 210 206 227 30 11 13 226 228 208 33 10 21 44 43 39 220 222 237 240 217 26 42 45 46 218 219 236 239 27 22 24 238 241 23 52 68 69 80 67 48 113 244 250 252 190 188 54 70 71 50 51 184 243 248 114 186 247 242 72 187 91 249 49 74 73 34 59 38 76 20 55 15 216 36 246 102 193 189 158 180 213 212 179 198 37 56 79 81 40 60 125 136 215 235 194 176 214 169 234 202 192 232 191 19 231 211 251 75 2 25 147 185 197 221 245 4 17 233 1
b 14 207 210 206 227 30 11 13 226 228 208 33 10 21 44 43 39 220 222 237 240 217 26 42 45 46 218 219 236 239 27 22 24 238 241 23 52 68 69 80 67 48 113 244 250 252 190 188 54 70 71 50 51 184 243 248 114 186 247 242 72 187 91 249 49 74 73 34 57 59 78 38 76 20 55 15 216 36 246 102 193 189 158 180 213 212 179 198 37 56 79 81 40 60 125 136 215 235 194 176 214 169 234 202 192 232 191 19 231 211 251 75 2 25 147 185 197 221 245 4 17 233 1
b 15 210 206 227 30 11 13 226 228 208 33 10 21 44 43 39 220 222 237 240 217 26 42 45 46 218 219 236 239 27 22 24 238 241 23 52 68 69 80 67 48 113 244 250 252 190 188 54 70 71 50 51 184 243 248 114 186 247 242 72 187 91 249 49 74 73 34 57 59 78 38 76 20 55 15 216 36 246 102 193 189 158 180 213 212 179 198 37 56 79 81 40 60 125 136 215 224 235 194 176 214 169 234 202 192 232 191 19 231 211 251 75 2 25 147 185 197 209 221 245 4 17 233 1
b 16 30 11 13 226 228 208 33 10 21 44 43 39 220 222 237 240 217 26 42 45 46 218 219 236 239 27 22 24 238 241 23 52 68 69 80 67 48 113 244 250 252 190 188 54 70 71 50 51 184 243 248 114 186 247 242 72 187 91 249 49 74 73 34 57 59 78 38 76 20 55 15 216 36 246 102 193 189 158 180 213 212 179 198 37 56 79 81 40 60 125 136 215 224 235 194 176 214 169 234 202 192 232 191 19 231 211 251 75 2 25 147 185 197 209 221 16 245 4 17 233 1
b 17 13 226 228 208 33 10 21 44 43 39 220 222 237 240 217 26 42 45 46 218 219 236 239 27 22 24 238 241 23 52 68 69 80 67 48 113 244 250 252 190 188 54 70 71 50 51 184 243 248 114 186 247 242 72 187 91 249 49 74 73 34 57 59 78 38 76 20 55 15 3 216 36 246 102 193 189 158 180 213 212 179 177 198 37 56 79 81 40 60 125 136 195 215 224 235 194 176 214 169 234 202 192 232 191 19 231 211 251 75 2 25 147 185 197 209 221 16 245 4 17 233 1
b 18 33 10 21 44 43 39 220 222 237 240 217 26 42 45 46 218 219 236 239 27 22 24 238 241 23 52 68 69 80 67 48 113 244 250 252 190 188 54 70 71 50 51 184 243 248 114 186 247 242 72 187 91 249 49 74 73 34 57 59 78 38 76 20 55 15 3 216 36 246 102 193 189 158 180 213 212 179 177 198 37 56 79 81 40 60 125 136 195 215 224 235 194 176 214 169 234 202 192 232 191 19 231 211 251 75 2 25 147 185 197 209 221 16 245 4 17 29 233 1
b 19 5 181 200 256 7 63 83 6 255 253 254 44 222 240 217 26 42 46 219 239 24 238 23 244 250 252 243 248 247 242 249 78 36 60 224 176 196 251 197
b 20 47 182 201 181 58 183 199 14 64 84 6 253 220 240 217 26 45 236 113 73 55 3 36 246 180 213 37 224 235 202 191 19
b 21 182 201 181 200 58 183 199 14 203 64 84 6 253 254 220 237 240 217 26 45 218 236 69 80 113 114 91 74 73 38 20 55 3 36 246 102 158 180 213 179 177 37 56 125 136 224 235 176 169 202 191 19 178
b 22 201 181 200 58 183 199 14 203 64 84 6 255 253 254 21 39 220 222 237 240 217 26 45 218 219 236 238 69 80 113 190 188 184 114 186 187 91 74 73 57 38 20 55 3 36 246 102 193 189 158 180 213 179 177 198 37 56 125 136 195 224 235 194 176 169 202 192 191 19 196 178 75
b 23 181 200 58 183 199 256 14 7 203 64 63 84 83 6 255 253 254 21 44 39 220 222 237 240 217 26 42 45 46 218 219 236 239 24 238 23 69 80 113 244 250 252 190 188 184 243 248 114 186 247 242 187 91 249 74 73 57 78 38 20 55 3 36 246 102 193 189 158 180 213 179 177 198 37 56 60 125 136 195 224 235 194 176 169 202 192 191 19 196 178 251 75 197
b 24 200 58 183 199 256 14 7 203 64 63 84 83 6 255 253 254 21 44 39 220 222 237 240 217 26 42 45 46 218 219 236 239 24 238 241 23 69 80 113 244 250 252 190 188 184 243 248 114 186 247 242 187 91 249 74 73 57 78 38 20 55 3 36 246 102 193 189 158 180 213 179 177 198 37 56 60 125 136 195 224 235 194 176 169 202 192 191 19 196 178 251 75 197
b 25 61 62 82 66 64 63 6 255 43 237 217 42 22 24 241 52 48 113 252 190 54 50 51 114 49 57 59 20 55 3 198 56 79 81 40 60 231 211 178 147
b 26 62 82 66 199 256 14 7 64 63 83 6 255 253 21 44 43 237 217 26 42 218 22 24 238 241 23 52 48 113 252 190 54 50 51 114 49 57 59 20 55 3 180 212 179 198 56 79 81 40 60 125 192 232 231 211 178 147 185
b 27 85 82 66 58 183 7 203 64 84 83 255 44 222 46 236 27 241 23 68 67 70 71 72 74 73 78 76 158 79 81 215 194 202 75 221 245 1
b 28 82 66 58 183 199 256 14 7 203 64 63 84 83 6 255 253 21 44 43 222 237 217 26 42 45 46 218 236 27 22 24 238 241 23 52 68 67 48 113 252 190 54 70 71 50 51 114 72 49 74 73 57 59 78 76 20 55 3 158 180 212 179 198 56 79 81 40 60 125 215 194 202 192 232 231 211 178 75 147 185 221 245 1
b 29 66 58 183 199 256 14 7 203 64 63 84 83 6 255 253 21 44 43 222 237 217 26 42 45 46 218 236 27 22 24 238 241 23 52 68 67 48 113 252 190 54 70 71 50 51 114 72 49 74 73 57 59 78 76 20 55 3 216 158 180 213 212 179 198 56 79 81 40 60 125 195 215 194 169 202 192 232 231 211 178 75 147 185 221 16 245 4 1
b 30 58 183 199 256 14 7 203 64 63 84 83 6 255 253 254 21 44 43 39 220 222 237 240 217 26 42 45 46 218 219 236 239 27 22 24 238 241 23 52 68 69 80 67 48 113 244 250 252 190 188 54 70 71 50 51 184 243 248 114 186 247 242 72 187 91 249 49 74 73 57 59 78 38 76 20 55 3 216 36 246 102 193 189 158 180 213 212 179 177 198 37 56 79 81 40 60 125 136 195 215 224 235 194 176 169 202 192 232 191 19 231 211 196 178 251 75 2 147 185 197 221 16 245 4 1
b 31 14 7 203 64 63 84 83 6 255 253 254 21 44 43 39 220 222 237 240 217 26 42 45 46 218 219 236 239 27 22 24 238 241 23 52 68 69 80 67 48 113 244 250 252 190 188 54 70 71 50 51 184 243 248 114 186 247 242 72 187 91 249 49 74 73 34 57 59 78 38 76 20 55 15 3 216 36 246 102 193 189 158 180 213 212 179 177 198 37 56 79 81 40 60 125 136 195 215 224 235 194 176 169 202 192 232 191 19 231 211 196 178 251 75 2 147 185 197 221 16 245 4 1
b 32 64 63 84 83 6 255 253 254 21 44 43 39 220 222 237 240 217 26 42 45 46 218 219 236 239 27 22 24 238 241 23 52 68 69 80 67 48 113 244 250 252 190 188 54 70 71 50 51 184 243 248 114 186 247 242 72 187 91 249 49 74 73 34 57 59 78 38 76 20 55 15 3 216 36 246 102 193 189 158 180 213 212 179 177 198 37 56 79 81 40 60 125 136 195 215 224 235 194 176 169 202 192 232 191 19 231 211 196 178 251 75 2 147 185 197 209 221 16 245 4 1
b 33 63 84 83 6 255 253 254 21 44 43 39 220 222 237 240 217 26 42 45 46 218 219 236 239 27 22 24 238 241 23 52 68 69 80 67 48 113 244 250 252 190 188 54 70 71 50 51 184 243 248 114 186 247 242 72 187 91 249 49 74 73 34 57 59 78 38 76 20 55 15 3 216 36 246 102 193 189 158 180 213 212 179 177 198 37 56 79 81 40 60 125 136 195 215 224 235 194 176 214 169 234 202 192 232 191 19 231 211 196 178 251 75 2 147 185 197 209 221 16 245 4 233 1
b 34 254 21 44 43 39 220 222 237 240 217 26 42 45 46 218 219 236 239 27 22 24 238 241 23 52 68 69 80 67 48 113 244 250 252 190 188 54 70 71 50 51 184 243 248 114 186 247 242 72 187 91 249 49 74 73 34 57 59 78 38 76 20 55 15 3 216 36 246 102 193 189 158 180 213 212 179 177 198 37 56 79 81 40 60 125 136 195 215 224 235 194 176 214 169 234 202 192 232 191 19 231 211 196 178 251 75 2 25 147 185 197 209 221 16 245 4 233 1
b 35 21 44 43 39 220 222 237 240 217 26 42 45 46 218 219 236 239 27 22 24 238 241 23 52 68 69 80 67 48 113 244 250 252 190 188 54 70 71 50 51 184 243 248 114 186 247 242 72 187 91 249 49 74 73 34 57 59 78 38 76 20 55 15 3 216 36 246 102 193 189 158 180 213 212 179 177 198 37 56 79 81 40 60 125 136 195 215 224 235 194 176 214 169 234 202 192 232 191 19 231 211 196 178 251 75 2 25 147 185 197 209 221 16 245 4 17 29 233 1
b 36 54 70 71 50 51 184 243 248 114 186 247 242 72 187 91 249 49 74 73 34 57 59 78 38 76 20 55 15 3 216 36 246 102 193 189 158 180 213 212 179 177 198 37 56 79 81 40 60 125 136 195 215 224 235 194 176 214 169 234 202 192 232 191 19 231 211 196 178 251 75 2 25 147 185 197 209 221 16 245 4 17 29 41 233 1
b 37 74 73 34 57 59 78 38 76 20 55 15 3 216 36 246 102 193 189 158 180 213 212 179 177 198 37 56 79 81 40 60 125 136 195 215 224 235 194 176 214 169 234 202 192 232 191 19 231 211 196 178 251 75 2 25 147 185 197 209 221 16 245 4 17 29 41 53 233 1
b 38 77 87 124 127 89 93 88 92 94 104 106 144 86 168 148 122 65 105 141 159 163 2 245 4 17 29 41 53 233
b 39 87 124 127 89 93 130 88 92 94 104 106 107 108 144 86 171 168 150 166 146 148 122 65 105 141 159 161 143 163 2 25 147 245 4 17 29 41 53 233
b 40 126 124 127 131 129 133 132 130 88 106 107 144 145 86 167 165 146 121 120 122 115 117 118 119 65 105 123 162 2 185
b 41 124 127 89 93 131 129 133 132 130 88 92 94 104 106 107 108 144 145 86 171 167 168 150 165 166 146 148 121 120 122 115 117 118 119 65 105 123 141 159 161 143 162 163 2 25 147 185 245 4 17 29 41 53 233
b 42 127 89 93 131 129 133 132 130 88 92 94 104 106 107 108 144 145 86 171 167 168 150 165 166 146 148 121 120 122 115 117 118 119 65 105 123 141 159 161 143 162 163 2 25 147 185 197 245 4 17 29 41 53 233
b 43 111 109 110 112 93 131 133 132 92 94 104 106 107 108 171 167 151 149 95 97 96 99 100 98 105 101 185 209
b 44 109 110 112 89 93 131 129 133 132 130 88 92 94 104 106 107 108 171 167 168 172 151 149 165 146 95 97 96 99 100 98 105 101 25 185 209
b 45 110 112 89 93 131 129 133 132 130 88 92 94 104 106 107 108 171 167 168 172 151 149 150 153 165 166 170 146 148 95 97 96 99 100 98 105 101 25 147 185 197 209 221
b 46 89 93 131 129 133 132 130 88 92 94 104 106 107 108 144 145 86 171 167 168 172 151 149 150 153 165 166 170 146 148 95 97 96 121 120 122 99 100 115 117 118 98 119 65 105 123 141 159 161 143 162 163 101 2 25 147 185 197 209 221 245 4 17 29 41 53 233
b 47 90 103 140 152 164 142 156 175 137 116 128 95 97 121 99 118 162 16 1
b 48 103 140 152 164 142 157 156 175 137 138 116 128 95 97 121 122 99 115 118 119 143 162 163 16 1
b 49 140 152 164 142 157 173 155 156 175 137 138 116 128 167 146 95 97 121 122 99 115 118 119 161 143 162 163 16 1
b 50 152 164 142 157 173 174 155 156 175 137 138 116 128 167 168 146 95 97 121 122 99 115 118 119 161 143 162 163 16 1
b 51 164 142 157 173 174 155 156 175 137 138 116 128 167 168 170 146 95 97 121 122 99 115 118 119 161 143 162 163 16 1
b 52 134 135 154 139 142 173 155 175 137 138 116 144 145 151 149 150 153 146 148 95 97 115 117 141 143 17 233 1
b 53 135 154 139 142 173 174 155 156 175 137 138 116 128 144 145 151 149 150 153 146 148 95 97 96 115 117 118 98 141 143 16 245 17 29 233 1
b 54 160 154 139 142 157 155 156 128 86 171 167 168 172 165 166 170 97 121 100 119 105 123 141 159 161 162 163 25 245 41 1
b 55 154 139 142 157 173 174 155 156 175 137 138 116 128 144 145 86 171 167 168 172 151 149 150 153 165 166 170 146 148 95 97 96 121 100 115 117 118 98 119 105 123 141 159 161 143 162 163 25 16 245 17 29 41 233 1
b 56 139 142 157 173 174 155 156 175 137 138 116 128 144 145 86 171 167 168 172 151 149 150 153 165 166 170 146 148 95 97 96 121 120 99 100 115 117 118 98 119 65 105 123 141 159 161 143 162 163 101 25 16 245 17 29 41 233 1
b 57 142 157 173 174 155 156 175 137 138 116 128 144 145 86 171 167 168 172 151 149 150 153 165 166 170 146 148 95 97 96 121 120 122 99 100 115 117 118 98 119 65 105 123 141 159 161 143 162 163 101 25 16 245 17 29 41 53 233 1
b 58 156 175 137 138 116 128 144 145 86 171 167 168 172 151 149 150 153 165 166 170 146 148 95 97 96 121 120 122 99 100 115 117 118 98 119 65 105 123 141 159 161 143 162 163 101 25 16 245 4 17 29 41 53 233 1
b 59 144 145 86 171 167 168 172 151 149 150 153 165 166 170 146 148 95 97 96 121 120 122 99 100 115 117 118 98 119 65 105 123 141 159 161 143 162 163 101 2 25 147 185 197 209 221 16 245 4 17 29 41 53 233 1
b 60 65 105 123 141 159 161 143 162 163 101 75 2 25 147 185 197 209 221 16 245 4 17 29 41 53 233 1
1 3
3 4
4 9
9 10
10 11
11 12
12 13
13 14
14 15
15 16
16 17
17 18
18 35
35 34
34 33
33 32
32 31
31 30
30 24
24 23
9 8
30 29
35 36
29 28
23 22
36 37
8 6
28 26
22 21
8 7
6 5
26 25
23 19
28 27
3 2
21 20
37 60
60 59
59 46
46 42
42 41
59 58
58 57
57 56
56 55
46 45
41 39
45 44
55 53
55 54
41 40
57 51
51 50
50 49
39 38
53 52
44 43
49 48
48 47
